NAME: dj15
COMMENT : 15 locations in Djibouti; chosen from dj38.tsp
TYPE: TSP
DIMENSION: 15
EDGE_WEIGHT_TYPE: EUC_2D
NODE_COORD_SECTION
1 11003.611100 42102.500000
2 11108.611100 42373.888900
3 11133.333300 42885.833300
4 11155.833300 42712.500000
5 11183.333300 42933.333300
6 11297.500000 42853.333300
7 11310.277800 42929.444400
8 11416.666700 42983.333300
9 11423.888900 43000.277800
10 11438.333300 42057.222200
11 11461.111100 43252.777800
12 11485.555600 43187.222200
13 11503.055600 42855.277800
14 11511.388900 42106.388900
15 11522.222200 42841.944400
